p cnf 242 768
c weights 1.0 1.0 2.718281828459045 0.36787944117144233 2.718281828459045 0.36787944117144233 2.718281828459045 0.36787944117144233 2.718281828459045 0.36787944117144233 2.718281828459045 0.36787944117144233 2.718281828459045 0.36787944117144233 2.718281828459045 0.36787944117144233 1.0 1.0 2.718281828459045 0.36787944117144233 2.718281828459045 0.36787944117144233 2.718281828459045 0.36787944117144233 2.718281828459045 0.36787944117144233 2.718281828459045 0.36787944117144233 2.718281828459045 0.36787944117144233 2.718281828459045 0.36787944117144233 1.0 1.0 2.718281828459045 0.36787944117144233 2.718281828459045 0.36787944117144233 2.718281828459045 0.36787944117144233 2.718281828459045 0.36787944117144233 2.718281828459045 0.36787944117144233 2.718281828459045 0.36787944117144233 2.718281828459045 0.36787944117144233 2.718281828459045 0.36787944117144233 2.718281828459045 0.36787944117144233 2.718281828459045 0.36787944117144233 1.0 1.0 2.718281828459045 0.36787944117144233 2.718281828459045 0.36787944117144233 2.718281828459045 0.36787944117144233 2.718281828459045 0.36787944117144233 2.718281828459045 0.36787944117144233 2.718281828459045 0.36787944117144233 2.718281828459045 0.36787944117144233 2.718281828459045 0.36787944117144233 1.0 1.0 2.718281828459045 0.36787944117144233 2.718281828459045 0.36787944117144233 2.718281828459045 0.36787944117144233 2.718281828459045 0.36787944117144233 2.718281828459045 0.36787944117144233 2.718281828459045 0.36787944117144233 2.718281828459045 0.36787944117144233 1.0 1.0 2.718281828459045 0.36787944117144233 2.718281828459045 0.36787944117144233 2.718281828459045 0.36787944117144233 2.718281828459045 0.36787944117144233 2.718281828459045 0.36787944117144233 2.718281828459045 0.36787944117144233 2.718281828459045 0.36787944117144233 2.718281828459045 0.36787944117144233 1.0 1.0 2.718281828459045 0.36787944117144233 2.718281828459045 0.36787944117144233 2.718281828459045 0.36787944117144233 2.718281828459045 0.36787944117144233 1.0 1.0 2.718281828459045 0.36787944117144233 2.718281828459045 0.36787944117144233 2.718281828459045 0.36787944117144233 2.718281828459045 0.36787944117144233 2.718281828459045 0.36787944117144233 2.718281828459045 0.36787944117144233 2.718281828459045 0.36787944117144233 2.718281828459045 0.36787944117144233 1.0 1.0 2.718281828459045 0.36787944117144233 2.718281828459045 0.36787944117144233 2.718281828459045 0.36787944117144233 2.718281828459045 0.36787944117144233 2.718281828459045 0.36787944117144233 2.718281828459045 0.36787944117144233 2.718281828459045 0.36787944117144233 2.718281828459045 0.36787944117144233 2.718281828459045 0.36787944117144233 2.718281828459045 0.36787944117144233 1.0 1.0 2.718281828459045 0.36787944117144233 2.718281828459045 0.36787944117144233 2.718281828459045 0.36787944117144233 2.718281828459045 0.36787944117144233 2.718281828459045 0.36787944117144233 2.718281828459045 0.36787944117144233 2.718281828459045 0.36787944117144233 1.0 1.0 2.718281828459045 0.36787944117144233 2.718281828459045 0.36787944117144233 2.718281828459045 0.36787944117144233 2.718281828459045 0.36787944117144233 1.0 1.0 2.718281828459045 0.36787944117144233 2.718281828459045 0.36787944117144233 2.718281828459045 0.36787944117144233 2.718281828459045 0.36787944117144233 2.718281828459045 0.36787944117144233 1.0 1.0 2.718281828459045 0.36787944117144233 2.718281828459045 0.36787944117144233 2.718281828459045 0.36787944117144233 2.718281828459045 0.36787944117144233 1.0 1.0 2.718281828459045 0.36787944117144233 2.718281828459045 0.36787944117144233 2.718281828459045 0.36787944117144233 1.0 1.0 2.718281828459045 0.36787944117144233 2.718281828459045 0.36787944117144233 2.718281828459045 0.36787944117144233 2.718281828459045 0.36787944117144233 2.718281828459045 0.36787944117144233 2.718281828459045 0.36787944117144233 2.718281828459045 0.36787944117144233 2.718281828459045 0.36787944117144233 2.718281828459045 0.36787944117144233 2.718281828459045 0.36787944117144233 1.0 1.0 2.718281828459045 0.36787944117144233 2.718281828459045 0.36787944117144233 2.718281828459045 0.36787944117144233 2.718281828459045 0.36787944117144233 2.718281828459045 0.36787944117144233 1.0 1.0 2.718281828459045 0.36787944117144233 2.718281828459045 0.36787944117144233 2.718281828459045 0.36787944117144233 2.718281828459045 0.36787944117144233 2.718281828459045 0.36787944117144233 2.718281828459045 0.36787944117144233 1.0 1.0 2.718281828459045 0.36787944117144233 2.718281828459045 0.36787944117144233 2.718281828459045 0.36787944117144233 2.718281828459045 0.36787944117144233 2.718281828459045 0.36787944117144233 2.718281828459045 0.36787944117144233 1.0 1.0 2.718281828459045 0.36787944117144233 2.718281828459045 0.36787944117144233 2.718281828459045 0.36787944117144233 2.718281828459045 0.36787944117144233 1.0 1.0 2.718281828459045 0.36787944117144233 2.718281828459045 0.36787944117144233 2.718281828459045 0.36787944117144233 2.718281828459045 0.36787944117144233 1.0 1.0 2.718281828459045 0.36787944117144233 2.718281828459045 0.36787944117144233 2.718281828459045 0.36787944117144233 2.718281828459045 0.36787944117144233 2.718281828459045 0.36787944117144233 1.0 1.0 2.718281828459045 0.36787944117144233 2.718281828459045 0.36787944117144233 2.718281828459045 0.36787944117144233 1.0 1.0 2.718281828459045 0.36787944117144233 2.718281828459045 0.36787944117144233 2.718281828459045 0.36787944117144233 2.718281828459045 0.36787944117144233 2.718281828459045 0.36787944117144233 1.0 1.0 2.718281828459045 0.36787944117144233 2.718281828459045 0.36787944117144233 2.718281828459045 0.36787944117144233 1.0 1.0 2.718281828459045 0.36787944117144233 2.718281828459045 0.36787944117144233 2.718281828459045 0.36787944117144233 1.0 1.0 2.718281828459045 0.36787944117144233 2.718281828459045 0.36787944117144233 2.718281828459045 0.36787944117144233 2.718281828459045 0.36787944117144233 1.0 1.0 2.718281828459045 0.36787944117144233 2.718281828459045 0.36787944117144233 2.718281828459045 0.36787944117144233 2.718281828459045 0.36787944117144233 2.718281828459045 0.36787944117144233 2.718281828459045 0.36787944117144233 2.718281828459045 0.36787944117144233 1.0 1.0 2.718281828459045 0.36787944117144233 1.0 1.0 2.718281828459045 0.36787944117144233 2.718281828459045 0.36787944117144233 2.718281828459045 0.36787944117144233 1.0 1.0 2.718281828459045 0.36787944117144233 2.718281828459045 0.36787944117144233 1.0 1.0 2.718281828459045 0.36787944117144233 2.718281828459045 0.36787944117144233 2.718281828459045 0.36787944117144233 1.0 1.0 2.718281828459045 0.36787944117144233 2.718281828459045 0.36787944117144233 2.718281828459045 0.36787944117144233 2.718281828459045 0.36787944117144233 2.718281828459045 0.36787944117144233 1.0 1.0 2.718281828459045 0.36787944117144233 2.718281828459045 0.36787944117144233 2.718281828459045 0.36787944117144233 1.0 1.0 1.0 1.0 2.718281828459045 0.36787944117144233 2.718281828459045 0.36787944117144233 2.718281828459045 0.36787944117144233 1.0 1.0 1.0 1.0 2.718281828459045 0.36787944117144233 2.718281828459045 0.36787944117144233 1.0 1.0 2.718281828459045 0.36787944117144233 2.718281828459045 0.36787944117144233 1.0 1.0 1.0 1.0 2.718281828459045 0.36787944117144233 1.0 1.0 1.0 1.0 2.718281828459045 0.36787944117144233 1.0 1.0 2.718281828459045 0.36787944117144233 2.718281828459045 0.36787944117144233 1.0 1.0 2.718281828459045 0.36787944117144233 1.0 1.0 2.718281828459045 0.36787944117144233 2.718281828459045 0.36787944117144233 1.0 1.0 2.718281828459045 0.36787944117144233 2.718281828459045 0.36787944117144233 1.0 1.0 2.718281828459045 0.36787944117144233 1.0 1.0 2.718281828459045 0.36787944117144233 1.0 1.0 1.0 1.0
2 1 9 0
2 -1 -9 0
-2 1 -9 0
-2 -1 9 0
3 1 59 0
3 -1 -59 0
-3 1 -59 0
-3 -1 59 0
4 1 87 0
4 -1 -87 0
-4 1 -87 0
-4 -1 87 0
5 1 143 0
5 -1 -143 0
-5 1 -143 0
-5 -1 143 0
6 1 148 0
6 -1 -148 0
-6 1 -148 0
-6 -1 148 0
7 1 164 0
7 -1 -164 0
-7 1 -164 0
-7 -1 164 0
8 1 204 0
8 -1 -204 0
-8 1 -204 0
-8 -1 204 0
10 9 45 0
10 -9 -45 0
-10 9 -45 0
-10 -9 45 0
11 9 118 0
11 -9 -118 0
-11 9 -118 0
-11 -9 118 0
12 9 148 0
12 -9 -148 0
-12 9 -148 0
-12 -9 148 0
13 9 220 0
13 -9 -220 0
-13 9 -220 0
-13 -9 220 0
14 9 221 0
14 -9 -221 0
-14 9 -221 0
-14 -9 221 0
15 9 229 0
15 -9 -229 0
-15 9 -229 0
-15 -9 229 0
16 9 234 0
16 -9 -234 0
-16 9 -234 0
-16 -9 234 0
18 17 28 0
18 -17 -28 0
-18 17 -28 0
-18 -17 28 0
19 17 37 0
19 -17 -37 0
-19 17 -37 0
-19 -17 37 0
20 17 87 0
20 -17 -87 0
-20 17 -87 0
-20 -17 87 0
21 17 92 0
21 -17 -92 0
-21 17 -92 0
-21 -17 92 0
22 17 143 0
22 -17 -143 0
-22 17 -143 0
-22 -17 143 0
23 17 164 0
23 -17 -164 0
-23 17 -164 0
-23 -17 164 0
24 17 168 0
24 -17 -168 0
-24 17 -168 0
-24 -17 168 0
25 17 187 0
25 -17 -187 0
-25 17 -187 0
-25 -17 187 0
26 17 237 0
26 -17 -237 0
-26 17 -237 0
-26 -17 237 0
27 17 241 0
27 -17 -241 0
-27 17 -241 0
-27 -17 241 0
29 28 68 0
29 -28 -68 0
-29 28 -68 0
-29 -28 68 0
30 28 79 0
30 -28 -79 0
-30 28 -79 0
-30 -28 79 0
31 28 124 0
31 -28 -124 0
-31 28 -124 0
-31 -28 124 0
32 28 143 0
32 -28 -143 0
-32 28 -143 0
-32 -28 143 0
33 28 204 0
33 -28 -204 0
-33 28 -204 0
-33 -28 204 0
34 28 208 0
34 -28 -208 0
-34 28 -208 0
-34 -28 208 0
35 28 220 0
35 -28 -220 0
-35 28 -220 0
-35 -28 220 0
36 28 231 0
36 -28 -231 0
-36 28 -231 0
-36 -28 231 0
38 37 45 0
38 -37 -45 0
-38 37 -45 0
-38 -37 45 0
39 37 79 0
39 -37 -79 0
-39 37 -79 0
-39 -37 79 0
40 37 148 0
40 -37 -148 0
-40 37 -148 0
-40 -37 148 0
41 37 158 0
41 -37 -158 0
-41 37 -158 0
-41 -37 158 0
42 37 204 0
42 -37 -204 0
-42 37 -204 0
-42 -37 204 0
43 37 208 0
43 -37 -208 0
-43 37 -208 0
-43 -37 208 0
44 37 224 0
44 -37 -224 0
-44 37 -224 0
-44 -37 224 0
46 45 107 0
46 -45 -107 0
-46 45 -107 0
-46 -45 107 0
47 45 148 0
47 -45 -148 0
-47 45 -148 0
-47 -45 148 0
48 45 164 0
48 -45 -164 0
-48 45 -164 0
-48 -45 164 0
49 45 185 0
49 -45 -185 0
-49 45 -185 0
-49 -45 185 0
50 45 223 0
50 -45 -223 0
-50 45 -223 0
-50 -45 223 0
51 45 239 0
51 -45 -239 0
-51 45 -239 0
-51 -45 239 0
52 45 241 0
52 -45 -241 0
-52 45 -241 0
-52 -45 241 0
53 45 242 0
53 -45 -242 0
-53 45 -242 0
-53 -45 242 0
55 54 124 0
55 -54 -124 0
-55 54 -124 0
-55 -54 124 0
56 54 185 0
56 -54 -185 0
-56 54 -185 0
-56 -54 185 0
57 54 209 0
57 -54 -209 0
-57 54 -209 0
-57 -54 209 0
58 54 226 0
58 -54 -226 0
-58 54 -226 0
-58 -54 226 0
60 59 124 0
60 -59 -124 0
-60 59 -124 0
-60 -59 124 0
61 59 158 0
61 -59 -158 0
-61 59 -158 0
-61 -59 158 0
62 59 164 0
62 -59 -164 0
-62 59 -164 0
-62 -59 164 0
63 59 191 0
63 -59 -191 0
-63 59 -191 0
-63 -59 191 0
64 59 226 0
64 -59 -226 0
-64 59 -226 0
-64 -59 226 0
65 59 231 0
65 -59 -231 0
-65 59 -231 0
-65 -59 231 0
66 59 237 0
66 -59 -237 0
-66 59 -237 0
-66 -59 237 0
67 59 241 0
67 -59 -241 0
-67 59 -241 0
-67 -59 241 0
69 68 79 0
69 -68 -79 0
-69 68 -79 0
-69 -68 79 0
70 68 92 0
70 -68 -92 0
-70 68 -92 0
-70 -68 92 0
71 68 98 0
71 -68 -98 0
-71 68 -98 0
-71 -68 98 0
72 68 143 0
72 -68 -143 0
-72 68 -143 0
-72 -68 143 0
73 68 164 0
73 -68 -164 0
-73 68 -164 0
-73 -68 164 0
74 68 177 0
74 -68 -177 0
-74 68 -177 0
-74 -68 177 0
75 68 198 0
75 -68 -198 0
-75 68 -198 0
-75 -68 198 0
76 68 214 0
76 -68 -214 0
-76 68 -214 0
-76 -68 214 0
77 68 237 0
77 -68 -237 0
-77 68 -237 0
-77 -68 237 0
78 68 239 0
78 -68 -239 0
-78 68 -239 0
-78 -68 239 0
80 79 131 0
80 -79 -131 0
-80 79 -131 0
-80 -79 131 0
81 79 198 0
81 -79 -198 0
-81 79 -198 0
-81 -79 198 0
82 79 217 0
82 -79 -217 0
-82 79 -217 0
-82 -79 217 0
83 79 220 0
83 -79 -220 0
-83 79 -220 0
-83 -79 220 0
84 79 224 0
84 -79 -224 0
-84 79 -224 0
-84 -79 224 0
85 79 229 0
85 -79 -229 0
-85 79 -229 0
-85 -79 229 0
86 79 239 0
86 -79 -239 0
-86 79 -239 0
-86 -79 239 0
88 87 124 0
88 -87 -124 0
-88 87 -124 0
-88 -87 124 0
89 87 131 0
89 -87 -131 0
-89 87 -131 0
-89 -87 131 0
90 87 164 0
90 -87 -164 0
-90 87 -164 0
-90 -87 164 0
91 87 221 0
91 -87 -221 0
-91 87 -221 0
-91 -87 221 0
93 92 98 0
93 -92 -98 0
-93 92 -98 0
-93 -92 98 0
94 92 143 0
94 -92 -143 0
-94 92 -143 0
-94 -92 143 0
95 92 158 0
95 -92 -158 0
-95 92 -158 0
-95 -92 158 0
96 92 187 0
96 -92 -187 0
-96 92 -187 0
-96 -92 187 0
97 92 224 0
97 -92 -224 0
-97 92 -224 0
-97 -92 224 0
99 98 164 0
99 -98 -164 0
-99 98 -164 0
-99 -98 164 0
100 98 217 0
100 -98 -217 0
-100 98 -217 0
-100 -98 217 0
101 98 237 0
101 -98 -237 0
-101 98 -237 0
-101 -98 237 0
102 98 239 0
102 -98 -239 0
-102 98 -239 0
-102 -98 239 0
104 103 185 0
104 -103 -185 0
-104 103 -185 0
-104 -103 185 0
105 103 214 0
105 -103 -214 0
-105 103 -214 0
-105 -103 214 0
106 103 217 0
106 -103 -217 0
-106 103 -217 0
-106 -103 217 0
108 107 131 0
108 -107 -131 0
-108 107 -131 0
-108 -107 131 0
109 107 138 0
109 -107 -138 0
-109 107 -138 0
-109 -107 138 0
110 107 143 0
110 -107 -143 0
-110 107 -143 0
-110 -107 143 0
111 107 148 0
111 -107 -148 0
-111 107 -148 0
-111 -107 148 0
112 107 164 0
112 -107 -164 0
-112 107 -164 0
-112 -107 164 0
113 107 177 0
113 -107 -177 0
-113 107 -177 0
-113 -107 177 0
114 107 185 0
114 -107 -185 0
-114 107 -185 0
-114 -107 185 0
115 107 204 0
115 -107 -204 0
-115 107 -204 0
-115 -107 204 0
116 107 221 0
116 -107 -221 0
-116 107 -221 0
-116 -107 221 0
117 107 239 0
117 -107 -239 0
-117 107 -239 0
-117 -107 239 0
119 118 204 0
119 -118 -204 0
-119 118 -204 0
-119 -118 204 0
120 118 213 0
120 -118 -213 0
-120 118 -213 0
-120 -118 213 0
121 118 234 0
121 -118 -234 0
-121 118 -234 0
-121 -118 234 0
122 118 239 0
122 -118 -239 0
-122 118 -239 0
-122 -118 239 0
123 118 241 0
123 -118 -241 0
-123 118 -241 0
-123 -118 241 0
125 124 131 0
125 -124 -131 0
-125 124 -131 0
-125 -124 131 0
126 124 158 0
126 -124 -158 0
-126 124 -158 0
-126 -124 158 0
127 124 185 0
127 -124 -185 0
-127 124 -185 0
-127 -124 185 0
128 124 217 0
128 -124 -217 0
-128 124 -217 0
-128 -124 217 0
129 124 224 0
129 -124 -224 0
-129 124 -224 0
-129 -124 224 0
130 124 239 0
130 -124 -239 0
-130 124 -239 0
-130 -124 239 0
132 131 154 0
132 -131 -154 0
-132 131 -154 0
-132 -131 154 0
133 131 177 0
133 -131 -177 0
-133 131 -177 0
-133 -131 177 0
134 131 221 0
134 -131 -221 0
-134 131 -221 0
-134 -131 221 0
135 131 226 0
135 -131 -226 0
-135 131 -226 0
-135 -131 226 0
136 131 239 0
136 -131 -239 0
-136 131 -239 0
-136 -131 239 0
137 131 242 0
137 -131 -242 0
-137 131 -242 0
-137 -131 242 0
139 138 214 0
139 -138 -214 0
-139 138 -214 0
-139 -138 214 0
140 138 217 0
140 -138 -217 0
-140 138 -217 0
-140 -138 217 0
141 138 234 0
141 -138 -234 0
-141 138 -234 0
-141 -138 234 0
142 138 241 0
142 -138 -241 0
-142 138 -241 0
-142 -138 241 0
144 143 194 0
144 -143 -194 0
-144 143 -194 0
-144 -143 194 0
145 143 198 0
145 -143 -198 0
-145 143 -198 0
-145 -143 198 0
146 143 214 0
146 -143 -214 0
-146 143 -214 0
-146 -143 214 0
147 143 239 0
147 -143 -239 0
-147 143 -239 0
-147 -143 239 0
149 148 191 0
149 -148 -191 0
-149 148 -191 0
-149 -148 191 0
150 148 229 0
150 -148 -229 0
-150 148 -229 0
-150 -148 229 0
151 148 234 0
151 -148 -234 0
-151 148 -234 0
-151 -148 234 0
152 148 237 0
152 -148 -237 0
-152 148 -237 0
-152 -148 237 0
153 148 239 0
153 -148 -239 0
-153 148 -239 0
-153 -148 239 0
155 154 177 0
155 -154 -177 0
-155 154 -177 0
-155 -154 177 0
156 154 213 0
156 -154 -213 0
-156 154 -213 0
-156 -154 213 0
157 154 217 0
157 -154 -217 0
-157 154 -217 0
-157 -154 217 0
159 158 198 0
159 -158 -198 0
-159 158 -198 0
-159 -158 198 0
160 158 204 0
160 -158 -204 0
-160 158 -204 0
-160 -158 204 0
161 158 208 0
161 -158 -208 0
-161 158 -208 0
-161 -158 208 0
162 158 209 0
162 -158 -209 0
-162 158 -209 0
-162 -158 209 0
163 158 213 0
163 -158 -213 0
-163 158 -213 0
-163 -158 213 0
165 164 213 0
165 -164 -213 0
-165 164 -213 0
-165 -164 213 0
166 164 234 0
166 -164 -234 0
-166 164 -234 0
-166 -164 234 0
167 164 241 0
167 -164 -241 0
-167 164 -241 0
-167 -164 241 0
169 168 208 0
169 -168 -208 0
-169 168 -208 0
-169 -168 208 0
170 168 221 0
170 -168 -221 0
-170 168 -221 0
-170 -168 221 0
171 168 241 0
171 -168 -241 0
-171 168 -241 0
-171 -168 241 0
173 172 198 0
173 -172 -198 0
-173 172 -198 0
-173 -172 198 0
174 172 209 0
174 -172 -209 0
-174 172 -209 0
-174 -172 209 0
175 172 239 0
175 -172 -239 0
-175 172 -239 0
-175 -172 239 0
176 172 241 0
176 -172 -241 0
-176 172 -241 0
-176 -172 241 0
178 177 185 0
178 -177 -185 0
-178 177 -185 0
-178 -177 185 0
179 177 204 0
179 -177 -204 0
-179 177 -204 0
-179 -177 204 0
180 177 214 0
180 -177 -214 0
-180 177 -214 0
-180 -177 214 0
181 177 220 0
181 -177 -220 0
-181 177 -220 0
-181 -177 220 0
182 177 223 0
182 -177 -223 0
-182 177 -223 0
-182 -177 223 0
183 177 229 0
183 -177 -229 0
-183 177 -229 0
-183 -177 229 0
184 177 234 0
184 -177 -234 0
-184 177 -234 0
-184 -177 234 0
186 185 213 0
186 -185 -213 0
-186 185 -213 0
-186 -185 213 0
188 187 198 0
188 -187 -198 0
-188 187 -198 0
-188 -187 198 0
189 187 213 0
189 -187 -213 0
-189 187 -213 0
-189 -187 213 0
190 187 231 0
190 -187 -231 0
-190 187 -231 0
-190 -187 231 0
192 191 223 0
192 -191 -223 0
-192 191 -223 0
-192 -191 223 0
193 191 224 0
193 -191 -224 0
-193 191 -224 0
-193 -191 224 0
195 194 213 0
195 -194 -213 0
-195 194 -213 0
-195 -194 213 0
196 194 226 0
196 -194 -226 0
-196 194 -226 0
-196 -194 226 0
197 194 241 0
197 -194 -241 0
-197 194 -241 0
-197 -194 241 0
199 198 204 0
199 -198 -204 0
-199 198 -204 0
-199 -198 204 0
200 198 214 0
200 -198 -214 0
-200 198 -214 0
-200 -198 214 0
201 198 217 0
201 -198 -217 0
-201 198 -217 0
-201 -198 217 0
202 198 234 0
202 -198 -234 0
-202 198 -234 0
-202 -198 234 0
203 198 239 0
203 -198 -239 0
-203 198 -239 0
-203 -198 239 0
205 204 209 0
205 -204 -209 0
-205 204 -209 0
-205 -204 209 0
206 204 213 0
206 -204 -213 0
-206 204 -213 0
-206 -204 213 0
207 204 229 0
207 -204 -229 0
-207 204 -229 0
-207 -204 229 0
210 209 220 0
210 -209 -220 0
-210 209 -220 0
-210 -209 220 0
211 209 221 0
211 -209 -221 0
-211 209 -221 0
-211 -209 221 0
212 209 229 0
212 -209 -229 0
-212 209 -229 0
-212 -209 229 0
215 214 223 0
215 -214 -223 0
-215 214 -223 0
-215 -214 223 0
216 214 229 0
216 -214 -229 0
-216 214 -229 0
-216 -214 229 0
218 217 229 0
218 -217 -229 0
-218 217 -229 0
-218 -217 229 0
219 217 231 0
219 -217 -231 0
-219 217 -231 0
-219 -217 231 0
222 221 237 0
222 -221 -237 0
-222 221 -237 0
-222 -221 237 0
225 224 231 0
225 -224 -231 0
-225 224 -231 0
-225 -224 231 0
227 226 237 0
227 -226 -237 0
-227 226 -237 0
-227 -226 237 0
228 226 241 0
228 -226 -241 0
-228 226 -241 0
-228 -226 241 0
230 229 231 0
230 -229 -231 0
-230 229 -231 0
-230 -229 231 0
232 231 234 0
232 -231 -234 0
-232 231 -234 0
-232 -231 234 0
233 231 239 0
233 -231 -239 0
-233 231 -239 0
-233 -231 239 0
235 234 239 0
235 -234 -239 0
-235 234 -239 0
-235 -234 239 0
236 234 241 0
236 -234 -241 0
-236 234 -241 0
-236 -234 241 0
238 237 241 0
238 -237 -241 0
-238 237 -241 0
-238 -237 241 0
240 239 241 0
240 -239 -241 0
-240 239 -241 0
-240 -239 241 0
